NAME          DCAP_2_4_3_200_SS42
ROWS
 N  OBJ
 L  CON1
 L  CON2
 L  CON3
 L  CON4
 L  CON5
 L  CON6
 L  CON7
 L  CON8
 L  CON9
 L  CON10
 L  CON11
 L  CON12
 E  CON13
 E  CON14
 E  CON15
 E  CON16
 E  CON17
 E  CON18
 E  CON19
 E  CON20
 E  CON21
 E  CON22
 E  CON23
 E  CON24
COLUMNS
    x[1,1]    OBJ       6.180167      CON1      1.000000    
    x[1,1]    CON7      -1.000000     CON8      -1.000000   
    x[1,1]    CON9      -1.000000   
    x[1,2]    OBJ       6.563535      CON2      1.000000    
    x[1,2]    CON8      -1.000000     CON9      -1.000000   
    x[1,3]    OBJ       7.443064      CON3      1.000000    
    x[1,3]    CON9      -1.000000   
    x[2,1]    OBJ       6.732585      CON4      1.000000    
    x[2,1]    CON10     -1.000000     CON11     -1.000000   
    x[2,1]    CON12     -1.000000   
    x[2,2]    OBJ       5.039546      CON5      1.000000    
    x[2,2]    CON11     -1.000000     CON12     -1.000000   
    x[2,3]    OBJ       6.054841      CON6      1.000000    
    x[2,3]    CON12     -1.000000   
    MARKER    'MARKER'                'INTORG'
    u[1,1]    OBJ       48.076654     CON1      -1.000000   
    u[1,2]    OBJ       20.066487     CON2      -1.000000   
    u[1,3]    OBJ       32.230043     CON3      -1.000000   
    u[2,1]    OBJ       49.996186     CON4      -1.000000   
    u[2,2]    OBJ       49.466655     CON5      -1.000000   
    u[2,3]    OBJ       27.484319     CON6      -1.000000   
    y[1,1,1]  OBJ       7.350267      CON7      1.453149    
    y[1,1,1]  CON13     1.000000    
    y[1,1,2]  OBJ       9.910046      CON8      0.526871    
    y[1,1,2]  CON14     1.000000    
    y[1,1,3]  OBJ       7.321550      CON9      1.199682    
    y[1,1,3]  CON15     1.000000    
    y[1,2,1]  OBJ       9.151601      CON7      1.498905    
    y[1,2,1]  CON16     1.000000    
    y[1,2,2]  OBJ       5.046210      CON8      1.418689    
    y[1,2,2]  CON17     1.000000    
    y[1,2,3]  OBJ       8.406525      CON9      0.861814    
    y[1,2,3]  CON18     1.000000    
    y[1,3,1]  OBJ       9.193314      CON7      0.527384    
    y[1,3,1]  CON19     1.000000    
    y[1,3,2]  OBJ       9.650873      CON8      1.340568    
    y[1,3,2]  CON20     1.000000    
    y[1,3,3]  OBJ       8.901190      CON9      1.488222    
    y[1,3,3]  CON21     1.000000    
    y[1,4,1]  OBJ       5.665400      CON7      1.440121    
    y[1,4,1]  CON22     1.000000    
    y[1,4,2]  OBJ       8.083369      CON8      0.693552    
    y[1,4,2]  CON23     1.000000    
    y[1,4,3]  OBJ       5.278305      CON9      1.391756    
    y[1,4,3]  CON24     1.000000    
    y[2,1,1]  OBJ       5.244496      CON10     1.453149    
    y[2,1,1]  CON13     1.000000    
    y[2,1,2]  OBJ       7.873461      CON11     0.526871    
    y[2,1,2]  CON14     1.000000    
    y[2,1,3]  OBJ       8.317131      CON12     1.199682    
    y[2,1,3]  CON15     1.000000    
    y[2,2,1]  OBJ       9.613444      CON10     1.498905    
    y[2,2,1]  CON16     1.000000    
    y[2,2,2]  OBJ       5.326998      CON11     1.418689    
    y[2,2,2]  CON17     1.000000    
    y[2,2,3]  OBJ       5.369943      CON12     0.861814    
    y[2,2,3]  CON18     1.000000    
    y[2,3,1]  OBJ       8.933620      CON10     0.527384    
    y[2,3,1]  CON19     1.000000    
    y[2,3,2]  OBJ       6.840971      CON11     1.340568    
    y[2,3,2]  CON20     1.000000    
    y[2,3,3]  OBJ       7.136946      CON12     1.488222    
    y[2,3,3]  CON21     1.000000    
    y[2,4,1]  OBJ       7.550398      CON10     1.440121    
    y[2,4,1]  CON22     1.000000    
    y[2,4,2]  OBJ       6.466020      CON11     0.693552    
    y[2,4,2]  CON23     1.000000    
    y[2,4,3]  OBJ       9.438102      CON12     1.391756    
    y[2,4,3]  CON24     1.000000    
    z[1,1]    OBJ       952.637478    CON13     1.000000    
    z[1,2]    OBJ       809.134866    CON14     1.000000    
    z[1,3]    OBJ       822.599489    CON15     1.000000    
    z[2,1]    OBJ       684.621354    CON16     1.000000    
    z[2,2]    OBJ       516.757414    CON17     1.000000    
    z[2,3]    OBJ       795.321735    CON18     1.000000    
    z[3,1]    OBJ       931.151038    CON19     1.000000    
    z[3,2]    OBJ       606.972812    CON20     1.000000    
    z[3,3]    OBJ       933.183039    CON21     1.000000    
    z[4,1]    OBJ       970.401115    CON22     1.000000    
    z[4,2]    OBJ       691.960005    CON23     1.000000    
    z[4,3]    OBJ       709.024922    CON24     1.000000    
    MARKER    'MARKER'                 'INTEND'
RHS
    RHS       CON1      -0.000000     CON2      -0.000000   
    RHS       CON3      -0.000000     CON4      -0.000000   
    RHS       CON5      -0.000000     CON6      -0.000000   
    RHS       CON7      -0.000000     CON8      -0.000000   
    RHS       CON9      -0.000000     CON10     -0.000000   
    RHS       CON11     -0.000000     CON12     -0.000000   
    RHS       CON13     1.000000      CON14     1.000000    
    RHS       CON15     1.000000      CON16     1.000000    
    RHS       CON17     1.000000      CON18     1.000000    
    RHS       CON19     1.000000      CON20     1.000000    
    RHS       CON21     1.000000      CON22     1.000000    
    RHS       CON23     1.000000      CON24     1.000000    
BOUNDS
 BV BOUND     u[1,1]  
 BV BOUND     u[1,2]  
 BV BOUND     u[1,3]  
 BV BOUND     u[2,1]  
 BV BOUND     u[2,2]  
 BV BOUND     u[2,3]  
 BV BOUND     y[1,1,1]
 BV BOUND     y[1,1,2]
 BV BOUND     y[1,1,3]
 BV BOUND     y[1,2,1]
 BV BOUND     y[1,2,2]
 BV BOUND     y[1,2,3]
 BV BOUND     y[1,3,1]
 BV BOUND     y[1,3,2]
 BV BOUND     y[1,3,3]
 BV BOUND     y[1,4,1]
 BV BOUND     y[1,4,2]
 BV BOUND     y[1,4,3]
 BV BOUND     y[2,1,1]
 BV BOUND     y[2,1,2]
 BV BOUND     y[2,1,3]
 BV BOUND     y[2,2,1]
 BV BOUND     y[2,2,2]
 BV BOUND     y[2,2,3]
 BV BOUND     y[2,3,1]
 BV BOUND     y[2,3,2]
 BV BOUND     y[2,3,3]
 BV BOUND     y[2,4,1]
 BV BOUND     y[2,4,2]
 BV BOUND     y[2,4,3]
 BV BOUND     z[1,1]  
 BV BOUND     z[1,2]  
 BV BOUND     z[1,3]  
 BV BOUND     z[2,1]  
 BV BOUND     z[2,2]  
 BV BOUND     z[2,3]  
 BV BOUND     z[3,1]  
 BV BOUND     z[3,2]  
 BV BOUND     z[3,3]  
 BV BOUND     z[4,1]  
 BV BOUND     z[4,2]  
 BV BOUND     z[4,3]  
ENDATA
